benchmarks_vrp/CMT12/no_cluster/CMT12_5.vrp
NAME: CMT12_5
TYPE: CVRP
COMMENT: 819.56 - Cluster Nr.5
DIMENSION: 10
CAPACITY: 200
EDGE_WEIGHT_TYPE: EUC_2D
NODE_COORD_TYPE: TWOD_COORDS
NODE_COORD_SECTION: 
1 15 75
9 22 85
3 25 85
8 15 80
5 40 50
7 22 75
4 38 70
10 20 80
2 18 75
6 20 85
DEPOT_SECTION: 
5
-1
DEMAND_SECTION: 
2 20
9 10
5 0
7 30
1 20
8 10
4 10
6 40
10 40
3 20
EOF
