benchmarks_vrp/CMT12/no_cluster/CMT12_5.tour
NAME: CMT12_5 solution
TYPE: TOUR
TOUR_SECTION:
5 4 3 9 6 10 8 1 2 7 -1
-1
EOF